words_hard_train/3241.qaiger
aag 39 11 0 1 28
2
4
8
10
14
16
22
24
32
38
46
78
6 2 5
12 9 11
18 15 17
20 12 18
26 23 25
28 27 4
30 20 29
34 31 33
36 7 35
40 39 23
42 41 25
44 40 24
48 47 5
50 45 49
52 43 51
54 46 22
56 55 25
58 10 4
60 47 23
62 58 61
64 57 62
66 16 8
68 3 14
70 66 68
72 64 70
74 73 32
76 53 75
78 36 76
i0 1 x2[7]
i1 2 y2[7]
i2 2 y2[4]
i3 2 y2[5]
i4 2 y2[2]
i5 2 y2[3]
i6 2 y2[0]
i7 2 y2[1]
i8 2 y2[6]
i9 1 x2[5]
i10 1 x2[6]
o0 bv[0]
c
simplified
  <=
    xor
      abs
        255
      abs
        2 y2
    >> 5
      1 x2
