words_hard_train/3241.qaiger.qdimacs
p cnf 39 85
a 1 19 23 0
e 2 3 4 5 6 7 8 9 10 11 12 13 14 15 16 17 18 20 21 22 24 25 26 27 28 29 30 31 32 33 34 35 36 37 38 39 0
-1 2 3 0
1 -3 0
-2 -3 0
4 5 6 0
-4 -6 0
-5 -6 0
7 8 9 0
-7 -9 0
-8 -9 0
-6 -9 10 0
6 -10 0
9 -10 0
11 12 13 0
-11 -13 0
-12 -13 0
13 -2 14 0
-13 -14 0
2 -14 0
-10 14 15 0
10 -15 0
-14 -15 0
15 16 17 0
-15 -17 0
-16 -17 0
3 17 18 0
-3 -18 0
-17 -18 0
19 11 20 0
-19 -20 0
-11 -20 0
20 12 21 0
-20 -21 0
-12 -21 0
-20 -12 22 0
20 -22 0
12 -22 0
23 2 24 0
-23 -24 0
-2 -24 0
22 24 25 0
-22 -25 0
-24 -25 0
21 25 26 0
-21 -26 0
-25 -26 0
-23 -11 27 0
23 -27 0
11 -27 0
27 12 28 0
-27 -28 0
-12 -28 0
-5 -2 29 0
5 -29 0
2 -29 0
23 11 30 0
-23 -30 0
-11 -30 0
-29 30 31 0
29 -31 0
-30 -31 0
28 -31 32 0
-28 -32 0
31 -32 0
-8 -4 33 0
8 -33 0
4 -33 0
1 -7 34 0
-1 -34 0
7 -34 0
-33 -34 35 0
33 -35 0
34 -35 0
-32 -35 36 0
32 -36 0
35 -36 0
36 -16 37 0
-36 -37 0
16 -37 0
26 37 38 0
-26 -38 0
-37 -38 0
-18 -38 39 0
18 -39 0
38 -39 0
39 0
